proyfinal/src/viki/013/experimentInOfficeAgust.take6.output/60154452-d327-4a85-89ac-44851003b9cc.als.out
Reading from standard input... Use '--help' for help.
============================[ Problem Statistics ]=============================
|                                                                             |
|  Number of variables:         87638                                         |
|  Number of clauses:          161767                                         |
|  Parse time:                   0.03 s                                       |
|                                                                             |
============================[ Search Statistics ]==============================
| Conflicts |          ORIGINAL         |          LEARNT          | Progress |
|           |    Vars  Clauses Literals |    Limit  Clauses Lit/Cl |          |
===============================================================================
|       100 |   62733   106475   266006 |    39040      100     20 | 28.418 % |
|       250 |   62733   106475   266006 |    42944      250     47 | 28.418 % |
|       475 |   62733   106475   266006 |    47239      475     67 | 28.418 % |
|       812 |   62733   106475   266006 |    51963      812     74 | 28.418 % |
|      1318 |   62732   106431   265916 |    57159     1316     77 | 28.419 % |
|      2077 |   62732   106431   265916 |    62875     2075     74 | 28.419 % |
|      3216 |   62732   106431   265916 |    69163     3214     78 | 28.419 % |
|      4924 |   62732   106431   265916 |    76079     4922     84 | 28.419 % |
|      7486 |   62732   106431   265916 |    83687     7484     75 | 28.419 % |
|     11330 |   62726   106391   265804 |    92056    11325     82 | 28.426 % |
===============================================================================
restarts              : 63
conflicts             : 16536          (7508 /sec)
decisions             : 59572          (0.00 % random) (27048 /sec)
propagations          : 21830693       (9912044 /sec)
conflict literals     : 1196695        (51.61 % deleted)
Memory used           : 34.66 MB
CPU time              : 2.20244 s

UNSATISFIABLE
